p cnf 113 356
2 -3 0
-2 -3 0
-4 1 0
-4 -3 0
-1 3 4 0
-8 6 0
-8 7 0
-6 -7 8 0
9 5 0
9 -8 0
-5 8 -9 0
-4 9 -10 0
4 -9 -10 0
-4 -9 10 0
4 9 10 0
11 10 0
11 9 0
-10 -9 -11 0
13 11 0
13 12 0
-11 -12 -13 0
14 -5 0
14 -6 0
5 6 -14 0
16 9 0
16 -15 0
-9 15 -16 0
-17 -14 0
-17 16 0
14 -16 17 0
18 13 0
18 -17 0
-13 17 -18 0
-20 8 0
-20 -19 0
-8 19 20 0
-24 22 0
-24 -23 0
-22 23 24 0
25 -21 0
25 24 0
21 -24 -25 0
-26 -20 0
-26 -25 0
20 25 26 0
27 -26 0
27 -19 0
26 19 -27 0
28 15 0
28 1 0
-15 -1 -28 0
-29 -25 0
-29 -15 0
25 15 29 0
28 -29 -30 0
-28 29 -30 0
28 29 30 0
-28 -29 30 0
-31 27 0
-31 -30 0
-27 30 31 0
-32 -31 0
-32 23 0
31 -23 32 0
-34 -21 0
-34 -33 0
21 33 34 0
-35 -32 0
-35 34 0
32 -34 35 0
36 22 0
36 -15 0
-22 15 -36 0
-37 -36 0
-37 24 0
36 -24 37 0
-38 -29 0
-38 37 0
29 -37 38 0
35 38 -39 0
-35 -38 -39 0
35 -38 39 0
-35 38 39 0
-7 40 -41 0
7 -40 -41 0
-7 -40 41 0
7 40 41 0
23 -42 0
-23 -42 0
43 22 0
43 -22 0
-44 -12 0
-44 43 0
12 -43 44 0
45 25 0
45 -44 0
-25 44 -45 0
42 45 -46 0
-42 -45 -46 0
42 -45 46 0
-42 45 46 0
47 -8 0
47 -33 0
8 33 -47 0
48 -46 0
48 -47 0
46 47 -48 0
-41 48 -49 0
41 -48 -49 0
-41 -48 49 0
41 48 49 0
50 39 0
50 49 0
-39 -49 -50 0
-51 -18 0
-51 50 0
18 -50 51 0
52 -36 0
52 1 0
36 -1 -52 0
53 -8 0
53 1 0
8 -1 -53 0
54 11 0
54 -53 0
-11 53 -54 0
-55 52 0
-55 54 0
-52 -54 55 0
-56 -1 0
-56 9 0
1 -9 56 0
57 45 0
57 -28 0
-45 28 -57 0
58 25 0
58 -57 0
-25 57 -58 0
-59 -56 0
-59 58 0
56 -58 59 0
-60 -55 0
-60 -59 0
55 59 60 0
-61 -24 0
-61 6 0
24 -6 61 0
-62 12 0
-62 -61 0
-12 61 62 0
63 -43 0
63 14 0
43 -14 -63 0
-64 62 0
-64 63 0
-62 -63 64 0
-65 23 0
-65 -64 0
-23 64 65 0
-66 -12 0
-66 22 0
12 -22 66 0
66 44 -67 0
-66 -44 -67 0
66 -44 67 0
-66 44 67 0
65 -67 -68 0
-65 67 -68 0
65 67 68 0
-65 -67 68 0
53 -3 -70 0
-53 3 -70 0
53 3 70 0
-53 -3 70 0
71 70 0
71 1 0
-70 -1 -71 0
72 69 0
72 71 0
-69 -71 -72 0
73 -68 0
73 72 0
68 -72 -73 0
74 60 0
74 73 0
-60 -73 -74 0
-75 -29 0
-75 -9 0
29 9 75 0
-76 62 0
-76 12 0
-62 -12 76 0
75 76 -77 0
-75 -76 -77 0
75 -76 77 0
-75 76 77 0
66 19 -78 0
-66 -19 -78 0
66 -19 78 0
-66 19 78 0
-79 -21 0
-79 14 0
21 -14 79 0
-80 -78 0
-80 79 0
78 -79 80 0
81 -77 0
81 -80 0
77 80 -81 0
82 -4 0
82 70 0
4 -70 -82 0
-83 -81 0
-83 82 0
81 -82 83 0
45 -1 -84 0
-45 1 -84 0
45 1 84 0
-45 -1 84 0
-84 30 -85 0
84 -30 -85 0
-84 -30 85 0
84 30 85 0
86 27 0
86 45 0
-27 -45 -86 0
-87 86 0
-87 -29 0
-86 29 87 0
-89 -5 0
-89 88 0
5 -88 89 0
-87 -89 -90 0
87 89 -90 0
-87 89 90 0
87 -89 90 0
-85 -90 -91 0
85 90 -91 0
-85 90 91 0
85 -90 91 0
-83 -91 -92 0
83 91 -92 0
-83 91 92 0
83 -91 92 0
94 -22 0
94 93 0
22 -93 -94 0
94 -33 -95 0
-94 33 -95 0
94 33 95 0
-94 -33 95 0
-96 95 0
-96 -5 0
-95 5 96 0
36 84 -97 0
-36 -84 -97 0
36 -84 97 0
-36 84 97 0
98 12 0
98 15 0
-12 -15 -98 0
99 8 0
99 -98 0
-8 98 -99 0
-97 99 -100 0
97 -99 -100 0
-97 -99 100 0
97 99 100 0
101 96 0
101 100 0
-96 -100 -101 0
-102 11 0
-102 -25 0
-11 25 102 0
-103 -40 0
-103 40 0
104 103 0
104 -31 0
-103 31 -104 0
105 1 0
105 -27 0
-1 27 -105 0
106 -93 0
106 105 0
93 -105 -106 0
-86 -106 -107 0
86 106 -107 0
-86 106 107 0
86 -106 107 0
108 -104 0
108 107 0
104 -107 -108 0
109 -102 0
109 108 0
102 -108 -109 0
101 -109 -110 0
-101 109 -110 0
101 109 110 0
-101 -109 110 0
-92 110 -111 0
92 -110 -111 0
-92 -110 111 0
92 110 111 0
-112 -74 0
-112 -111 0
74 111 112 0
113 51 0
113 112 0
-51 -112 -113 0
13 -25 0
98 109 108 -100 15 21 0
-43 -62 -42 37 58 -64 0
-21 70 0
22 65 71 29 -16 3 0
-81 -28 -49 72 20 -43 0
-47 70 -19 1 -76 0
71 -32 8 -5 -21 0
-26 -78 0
-13 -61 74 -92 27 0
89 -73 43 94 60 -26 0
-66 -98 14 -38 -89 0
-24 53 78 48 108 0
-59 -13 0
41 -101 8 48 0
-111 -54 0
106 -45 88 -59 0
-50 -90 0
-12 45 -1 88 38 0
-45 -66 3 50 0
13 -57 0
-16 30 -89 1 0
-71 20 0
21 34 35 0
-110 -107 -72 24 0
-15 48 55 0
83 13 -6 0
46 -4 -13 -97 -70 0
-53 6 -1 -65 0
-2 26 -76 -73 0
-22 73 0
-2 41 -36 0
-81 43 0
-57 16 61 -46 56 35 0
-104 60 -49 85 -68 -111 0
94 -70 13 -47 -45 0
-16 -23 0
-91 -42 -72 96 -17 0
17 -10 88 0
-89 77 0
26 20 -49 -110 94 -88 0
48 49 -66 36 0
-37 -108 -19 65 -31 0
101 109 0
-86 -110 -68 0
-75 -68 48 0
113 0
